TW_6_5_0.75_0.0_0.75
Wed Nov 16 19:43:18 CET 2022
p tw 11 31
1 2
2 3
4 5
5 6
1 4
2 5
3 6
1 7
1 8
1 9
1 10
3 7
3 8
3 9
3 10
4 7
4 8
4 9
4 11
6 7
6 8
6 10
6 11
7 8
7 10
7 11
8 9
8 10
9 10
9 11
10 11
p tw 13 34
1 2
2 12
12 3
4 5
5 13
13 6
12 13
1 4
2 5
3 6
1 7
1 8
1 9
1 10
3 7
3 8
3 9
3 10
4 7
4 8
4 9
4 11
6 7
6 8
6 10
6 11
7 8
7 10
7 11
8 9
8 10
9 10
9 11
10 11
